p cnf 15 23
-15 -14 2 0
15 12 -2 0
-15 9 2 0
-15 7 -5 0
15 -6 -4 0
14 -13 5 0
14 11 -1 0
14 -10 -7 0
14 -8 -1 0
-13 8 6 0
13 -2 1 0
-12 -11 2 0
-12 -10 -3 0
12 -9 -7 0
-12 9 6 0
-12 8 -4 0
12 6 5 0
11 7 6 0
-10 -8 2 0
-10 -7 4 0
9 -8 -4 0
7 6 1 0
7 5 -3 0
